27      4       
5       10      10      10      
0       0       0       0       0       2       2       3       
9       0       0       0       0       4       4       5       9       12      
2       0       0       5       5       2       4       12      
1       0       0       0       1       1       6       
9       0       0       0       5       1       7       
6       0       0       0       1       3       8       10      13      
1       0       0       3       0       3       8       10      13      
7       0       0       0       3       3       11      14      15      
2       0       4       5       1       1       10      
6       0       5       0       2       2       11      15      
3       0       4       0       0       5       16      17      19      20      22      
6       0       3       3       4       5       16      17      19      20      22      
7       0       3       0       5       2       15      22      
7       0       3       0       0       4       16      17      19      22      
2       0       3       0       0       3       16      17      19      
6       0       2       0       3       2       18      26      
6       0       0       3       4       3       21      23      24      
10      0       2       3       0       3       23      24      25      
10      0       3       4       3       3       23      24      25      
1       0       1       3       1       2       23      24      
9       0       5       0       0       1       25      
3       0       2       3       4       1       23      
9       2       3       0       5       1       27      
1       2       2       0       2       1       27      
9       3       0       0       5       1       27      
10      0       4       3       4       1       27      
0       0       0       0       0       0       
